g3 3 1 0	# problem loadball
 31 31 1 0 11	# vars, constraints, objectives, ranges, eqns
 0 1	# nonlinear constraints, objectives
 0 0	# network constraints: nonlinear, linear
 0 31 0	# nonlinear vars in constraints, objectives, both
 0 0 0 1	# linear network variables; functions; arith, flags
 0 0 0 0 0	# discrete variables: binary, integer, nonlinear (b,c,o)
 91 31	# nonzeros in Jacobian, gradients
 0 0	# max name lengths: constraints, variables
 0 0 0 0 0	# common exprs: b,c,o,c1,o1
C0	#cnst1
n0
C1	#cnst2
n0
C2	#cnst3
n0
C3	#cnst4
n0
C4	#cnst5
n0
C5	#cnst6
n0
C6	#cnst7
n0
C7	#cnst8
n0
C8	#cnst9
n0
C9	#cnst10
n0
C10	#cnst11
n0
C11	#cnst12
n0
C12	#cnst13
n0
C13	#cnst14
n0
C14	#cnst15
n0
C15	#cnst16
n0
C16	#cnst17
n0
C17	#cnst18
n0
C18	#cnst19
n0
C19	#cnst20
n0
C20	#n1
n0
C21	#n2
n0
C22	#n3
n0
C23	#n4
n0
C24	#n5
n0
C25	#n6
n0
C26	#n7
n0
C27	#n8
n0
C28	#n9
n0
C29	#n10
n0
C30	#n11
n0
O0 0	#obj
o54	#sumlist
51
o2	#*
n0.009727626459143967
o3	#/
v20	#b1
o1	# - 
n100
v20	#b1
o2	#*
n0.009727626459143967
o3	#/
v21	#b2
o1	# - 
n100
v21	#b2
o2	#*
n0.009727626459143967
o3	#/
v22	#b3
o1	# - 
n20
v22	#b3
o2	#*
n0.009727626459143967
o3	#/
v23	#b4
o1	# - 
n100
v23	#b4
o2	#*
n0.009727626459143967
o3	#/
v24	#b5
o1	# - 
n100
v24	#b5
o2	#*
n0.009727626459143967
o3	#/
v25	#b6
o1	# - 
n20
v25	#b6
o2	#*
n0.009727626459143967
o3	#/
v26	#b7
o1	# - 
n20
v26	#b7
o2	#*
n0.009727626459143967
o3	#/
v27	#b8
o1	# - 
n100
v27	#b8
o2	#*
n0.009727626459143967
o3	#/
v28	#b9
o1	# - 
n20
v28	#b9
o2	#*
n0.009727626459143967
o3	#/
v29	#b10
o1	# - 
n20
v29	#b10
o2	#*
n0.009727626459143967
o3	#/
v30	#b11
o1	# - 
n20
v30	#b11
o2	#*
n0.15564202334630348
o3	#/
v0	#x4_1
o1	# - 
n1000
o0	# + 
o2	#*
n80
v0	#x4_1
o2	#*
n20
v1	#x1_4
o2	#*
n0.03891050583657587
o3	#/
v0	#x4_1
o1	# - 
n1000
o0	# + 
o2	#*
n20
v0	#x4_1
o2	#*
n80
v1	#x1_4
o2	#*
n0.15564202334630348
o3	#/
v2	#x4_2
o1	# - 
n1000
o0	# + 
o2	#*
n80
v2	#x4_2
o2	#*
n20
v3	#x2_4
o2	#*
n0.03891050583657587
o3	#/
v2	#x4_2
o1	# - 
n1000
o0	# + 
o2	#*
n20
v2	#x4_2
o2	#*
n80
v3	#x2_4
o2	#*
n0.15564202334630348
o3	#/
v4	#x4_3
o1	# - 
n1000
o0	# + 
o2	#*
n80
v4	#x4_3
o2	#*
n20
v5	#x3_4
o2	#*
n0.03891050583657587
o3	#/
v4	#x4_3
o1	# - 
n1000
o0	# + 
o2	#*
n20
v4	#x4_3
o2	#*
n80
v5	#x3_4
o2	#*
n0.15564202334630348
o3	#/
v1	#x1_4
o1	# - 
n1000
o0	# + 
o2	#*
n80
v1	#x1_4
o2	#*
n20
v0	#x4_1
o2	#*
n0.03891050583657587
o3	#/
v1	#x1_4
o1	# - 
n1000
o0	# + 
o2	#*
n20
v1	#x1_4
o2	#*
n80
v0	#x4_1
o2	#*
n0.15564202334630348
o3	#/
v3	#x2_4
o1	# - 
n1000
o0	# + 
o2	#*
n80
v3	#x2_4
o2	#*
n20
v2	#x4_2
o2	#*
n0.03891050583657587
o3	#/
v3	#x2_4
o1	# - 
n1000
o0	# + 
o2	#*
n20
v3	#x2_4
o2	#*
n80
v2	#x4_2
o2	#*
n0.15564202334630348
o3	#/
v5	#x3_4
o1	# - 
n1000
o0	# + 
o2	#*
n80
v5	#x3_4
o2	#*
n20
v4	#x4_3
o2	#*
n0.03891050583657587
o3	#/
v5	#x3_4
o1	# - 
n1000
o0	# + 
o2	#*
n20
v5	#x3_4
o2	#*
n80
v4	#x4_3
o2	#*
n0.15564202334630348
o3	#/
v14	#x8_9
o1	# - 
n1000
o0	# + 
o2	#*
n80
v14	#x8_9
o2	#*
n20
v15	#x9_8
o2	#*
n0.03891050583657587
o3	#/
v14	#x8_9
o1	# - 
n1000
o0	# + 
o2	#*
n20
v14	#x8_9
o2	#*
n80
v15	#x9_8
o2	#*
n0.15564202334630348
o3	#/
v16	#x8_10
o1	# - 
n1000
o0	# + 
o2	#*
n80
v16	#x8_10
o2	#*
n20
v17	#x10_8
o2	#*
n0.03891050583657587
o3	#/
v16	#x8_10
o1	# - 
n1000
o0	# + 
o2	#*
n20
v16	#x8_10
o2	#*
n80
v17	#x10_8
o2	#*
n0.15564202334630348
o3	#/
v18	#x8_11
o1	# - 
n1000
o0	# + 
o2	#*
n80
v18	#x8_11
o2	#*
n20
v19	#x11_8
o2	#*
n0.03891050583657587
o3	#/
v18	#x8_11
o1	# - 
n1000
o0	# + 
o2	#*
n20
v18	#x8_11
o2	#*
n80
v19	#x11_8
o2	#*
n0.15564202334630348
o3	#/
v15	#x9_8
o1	# - 
n1000
o0	# + 
o2	#*
n80
v15	#x9_8
o2	#*
n20
v14	#x8_9
o2	#*
n0.03891050583657587
o3	#/
v15	#x9_8
o1	# - 
n1000
o0	# + 
o2	#*
n20
v15	#x9_8
o2	#*
n80
v14	#x8_9
o2	#*
n0.15564202334630348
o3	#/
v17	#x10_8
o1	# - 
n1000
o0	# + 
o2	#*
n80
v17	#x10_8
o2	#*
n20
v16	#x8_10
o2	#*
n0.03891050583657587
o3	#/
v17	#x10_8
o1	# - 
n1000
o0	# + 
o2	#*
n20
v17	#x10_8
o2	#*
n80
v16	#x8_10
o2	#*
n0.15564202334630348
o3	#/
v19	#x11_8
o1	# - 
n1000
o0	# + 
o2	#*
n80
v19	#x11_8
o2	#*
n20
v18	#x8_11
o2	#*
n0.03891050583657587
o3	#/
v19	#x11_8
o1	# - 
n1000
o0	# + 
o2	#*
n20
v19	#x11_8
o2	#*
n80
v18	#x8_11
o2	#*
n0.15564202334630348
o3	#/
v8	#x5_6
o1	# - 
n1000
o0	# + 
o2	#*
n80
v8	#x5_6
o2	#*
n20
v9	#x6_5
o2	#*
n0.03891050583657587
o3	#/
v8	#x5_6
o1	# - 
n1000
o0	# + 
o2	#*
n20
v8	#x5_6
o2	#*
n80
v9	#x6_5
o2	#*
n0.15564202334630348
o3	#/
v9	#x6_5
o1	# - 
n1000
o0	# + 
o2	#*
n80
v9	#x6_5
o2	#*
n20
v8	#x5_6
o2	#*
n0.03891050583657587
o3	#/
v9	#x6_5
o1	# - 
n1000
o0	# + 
o2	#*
n20
v9	#x6_5
o2	#*
n80
v8	#x5_6
o2	#*
n0.15564202334630348
o3	#/
v10	#x5_7
o1	# - 
n1000
o0	# + 
o2	#*
n80
v10	#x5_7
o2	#*
n20
v11	#x7_5
o2	#*
n0.03891050583657587
o3	#/
v10	#x5_7
o1	# - 
n1000
o0	# + 
o2	#*
n20
v10	#x5_7
o2	#*
n80
v11	#x7_5
o2	#*
n0.15564202334630348
o3	#/
v11	#x7_5
o1	# - 
n1000
o0	# + 
o2	#*
n80
v11	#x7_5
o2	#*
n20
v10	#x5_7
o2	#*
n0.03891050583657587
o3	#/
v11	#x7_5
o1	# - 
n1000
o0	# + 
o2	#*
n20
v11	#x7_5
o2	#*
n80
v10	#x5_7
o2	#*
n0.15564202334630348
o3	#/
v7	#x5_4
o1	# - 
n10000
o0	# + 
o2	#*
n80
v7	#x5_4
o2	#*
n20
v6	#x4_5
o2	#*
n0.03891050583657587
o3	#/
v7	#x5_4
o1	# - 
n10000
o0	# + 
o2	#*
n20
v7	#x5_4
o2	#*
n80
v6	#x4_5
o2	#*
n0.15564202334630348
o3	#/
v6	#x4_5
o1	# - 
n10000
o0	# + 
o2	#*
n80
v6	#x4_5
o2	#*
n20
v7	#x5_4
o2	#*
n0.03891050583657587
o3	#/
v6	#x4_5
o1	# - 
n10000
o0	# + 
o2	#*
n20
v6	#x4_5
o2	#*
n80
v7	#x5_4
o2	#*
n0.15564202334630348
o3	#/
v12	#x5_8
o1	# - 
n10000
o0	# + 
o2	#*
n80
v12	#x5_8
o2	#*
n20
v13	#x8_5
o2	#*
n0.03891050583657587
o3	#/
v12	#x5_8
o1	# - 
n10000
o0	# + 
o2	#*
n20
v12	#x5_8
o2	#*
n80
v13	#x8_5
o2	#*
n0.15564202334630348
o3	#/
v13	#x8_5
o1	# - 
n10000
o0	# + 
o2	#*
n80
v13	#x8_5
o2	#*
n20
v12	#x5_8
o2	#*
n0.03891050583657587
o3	#/
v13	#x8_5
o1	# - 
n10000
o0	# + 
o2	#*
n20
v13	#x8_5
o2	#*
n80
v12	#x5_8
x11	# initial guess
20 95
21 95
22 19
23 70
24 70
25 19
26 19
27 70
28 19
29 19
30 19
r	#31 ranges (rhs's)
2 -999.99
2 -999.99
2 -999.99
2 -999.99
2 -999.99
2 -999.99
2 -999.99
2 -999.99
2 -999.99
2 -999.99
2 -999.99
2 -999.99
2 -999.99
2 -999.99
2 -999.99
2 -999.99
2 -9999.99
2 -9999.99
2 -9999.99
2 -9999.99
4 -95
4 -95
4 -19
4 -70
4 -70
4 -19
4 -19
4 -70
4 -19
4 -19
4 -19
b	#31 bounds (on variables)
0 0 1.e8
0 0 1.e8
0 0 1.e8
0 0 1.e8
0 0 1.e8
0 0 1.e8
0 0 1.e8
0 0 1.e8
0 0 1.e8
0 0 1.e8
0 0 1.e8
0 0 1.e8
0 0 1.e8
0 0 1.e8
0 0 1.e8
0 0 1.e8
0 0 1.e8
0 0 1.e8
0 0 1.e8
0 0 1.e8
0 0 99.99
0 0 99.99
0 0 19.99
0 0 99.99
0 0 99.99
0 0 19.99
0 0 19.99
0 0 99.99
0 0 19.99
0 0 19.99
0 0 19.99
k30	#intermediate Jacobian column lengths
4
8
12
16
20
24
28
32
36
40
44
48
52
56
60
64
68
72
76
80
81
82
83
84
85
86
87
88
89
90
J0 2
0 -20
1 -80
J1 2
0 -80
1 -20
J2 2
2 -20
3 -80
J3 2
2 -80
3 -20
J4 2
4 -20
5 -80
J5 2
4 -80
5 -20
J6 2
8 -20
9 -80
J7 2
8 -80
9 -20
J8 2
10 -20
11 -80
J9 2
10 -80
11 -20
J10 2
14 -20
15 -80
J11 2
14 -80
15 -20
J12 2
16 -20
17 -80
J13 2
16 -80
17 -20
J14 2
18 -20
19 -80
J15 2
18 -80
19 -20
J16 2
6 -20
7 -80
J17 2
6 -80
7 -20
J18 2
12 -20
13 -80
J19 2
12 -80
13 -20
J20 3
0 1
1 -1
20 -1
J21 3
2 1
3 -1
21 -1
J22 3
4 1
5 -1
22 -1
J23 9
0 -1
1 1
2 -1
3 1
4 -1
5 1
6 -1
7 1
23 -1
J24 9
6 1
7 -1
8 -1
9 1
10 -1
11 1
12 -1
13 1
24 -1
J25 3
8 1
9 -1
25 -1
J26 3
10 1
11 -1
26 -1
J27 9
12 1
13 -1
14 -1
15 1
16 -1
17 1
18 -1
19 1
27 -1
J28 3
14 1
15 -1
28 -1
J29 3
16 1
17 -1
29 -1
J30 3
18 1
19 -1
30 -1
G0 31
0 0
1 0
2 0
3 0
4 0
5 0
6 0
7 0
8 0
9 0
10 0
11 0
12 0
13 0
14 0
15 0
16 0
17 0
18 0
19 0
20 0
21 0
22 0
23 0
24 0
25 0
26 0
27 0
28 0
29 0
30 0
